WARNING: for repeatability, setting FPU to use double precision
============================[ Problem Statistics ]=============================
|                                                                             |
|  Number of variables:            50                                         |
|  Number of clauses:             218                                         |
|  Parse time:                   0.00 s                                       |
|                                                                             |
============================[ Search Statistics ]==============================
| Conflicts |          ORIGINAL         |          LEARNT          | Progress |
|           |    Vars  Clauses Literals |    Limit  Clauses Lit/Cl |          |
===============================================================================
|       100 |      48      214      642 |       79       44      5 |  4.123 % |
===============================================================================
restarts              : 2
conflicts             : 122            (74481 /sec)
decisions             : 136            (0.00 % random) (83028 /sec)
propagations          : 1596           (974359 /sec)
conflict literals     : 547            (13.04 % deleted)
Memory used           : 20.00 MB
CPU time              : 0.001638 s

UNSATISFIABLE
